(declare-const term_to_project_onto3 Real)
(declare-const term_to_project_onto0 Real)
(declare-const term_to_project_onto1 Real)
(declare-const term_to_project_onto2 Real)
(declare-const term_to_project_onto Real)
(assert (exists
         ((|w'?1| Int) (|x'?2| Int) (|y'?3| Int) (|z'?4| Int) (|v'?5| Int)
            (K?6 Int) (|x'?7| Int) (|y'?8| Int) (|z'?9| Int) (|v'?10| Int)
            (v?11 Int) (z?12 Int) (y?13 Int) (x?14 Int) (w?15 Int))
         (and (<= (- v?11) 0) (<= (- z?12) 0) (<= (- y?13) 0) (<= (- x?14) 0)
                (<= (- w?15) 0) (<= (+ w?15 -268435454) 0) (<= K?6 0)
                (= K?6 0) (= (+ (- |v'?5|) v?11) 0) (= (+ (- |z'?4|) z?12) 0)
                (= (+ (- |y'?3|) y?13) 0) (= (- |x'?2|) 0) (<= (- K?6) 0)
                (<= (- |v'?5|) 0) (<= (- |z'?4|) 0) (<= (- |y'?3|) 0)
                (<= (- |x'?2|) 0) (<= (+ (- |x'?2|) 10) 0)
                (= (+ |v'?10| (- |v'?5|)) 0) (= (+ |w'?1| (- w?15) -1) 0)
                (= (+ |z'?9| (- |z'?4|)) 0) (= (+ |y'?8| (- |y'?3|)) 0)
                (= (+ |x'?7| (- |x'?2|)) 0)
                (= term_to_project_onto3 (+ |x'?7| (- x?14)))
                (= term_to_project_onto2 (+ |y'?8| (- y?13)))
                (= term_to_project_onto1 (+ |z'?9| (- z?12)))
                (= term_to_project_onto0 (+ |w'?1| (- w?15)))
                (= term_to_project_onto (+ |v'?10| (- v?11))))))
(check-sat)
